\ Equation counts
\     Total        E        G        L        N        X        C        B
\	0	0	0	0
\
\ Variable counts
\                  x        b        i      s1s      s2s       sc       si
\     Total     cont   binary  integer     sos1     sos2    scont     sint
\	50	50

\ Nonzero counts
\     Total    const       NL      DLL
\
\
Minimize
 obj: [ + 10.5 x_1 * x_1 - 5.5 x_1 * x_2 + 21.5 x_1 * x_6 + 17.0 x_1 * x_11 - 1.5 x_1 * x_14 + 24.0 x_1 * x_16 - 21.5 x_1 * x_17 - 8.0 x_1 * x_23 - 20.5 x_1 * x_25 + 17.5 x_1 * x_27 + 10.0 x_1 * x_29 + 7.5 x_1 * x_34 + 13.0 x_1 * x_35 + 23.5 x_1 * x_36 + 7.5 x_1 * x_39 + 8.5 x_1 * x_44 - 5.5 x_1 * x_46 - 18.0 x_1 * x_47 - 5.5 x_2 * x_1 + 10.5 x_2 * x_2 - 20.5 x_2 * x_4 - 22.0 x_2 * x_5 + 20.5 x_2 * x_8 - 6.5 x_2 * x_10 + 13.0 x_2 * x_15 - 1.5 x_2 * x_16 - 14.5 x_2 * x_17 + 4.0 x_2 * x_19 - 12.0 x_2 * x_21 - 1.0 x_2 * x_22 - 7.5 x_2 * x_27 - 21.0 x_2 * x_28 + 16.0 x_2 * x_32 - 24.0 x_2 * x_34 + 12.0 x_2 * x_35 + 22.5 x_2 * x_36 - 20.0 x_2 * x_37 + 21.0 x_2 * x_39 - 22.5 x_2 * x_40 + 19.5 x_2 * x_41 - 10.0 x_2 * x_42 + 18.5 x_2 * x_45 + 4.0 x_2 * x_48 + 0.5 x_2 * x_49 - 7.0 x_2 * x_50 + 14.0 x_3 * x_4 - 14.5 x_3 * x_6 + 20.5 x_3 * x_7 - 16.5 x_3 * x_8 + 21.0 x_3 * x_9 + 22.5 x_3 * x_15 + 17.0 x_3 * x_17 + 17.5 x_3 * x_20 + 14.5 x_3 * x_23 + 14.5 x_3 * x_24 + 20.0 x_3 * x_26 + 4.5 x_3 * x_28 + 6.5 x_3 * x_31 + 20.0 x_3 * x_35 + 23.0 x_3 * x_44 + 17.0 x_3 * x_47 - 22.5 x_3 * x_48 - 5.0 x_3 * x_49 - 20.5 x_4 * x_2 + 14.0 x_4 * x_3 - 21.5 x_4 * x_8 + 4.0 x_4 * x_9 + 15.5 x_4 * x_10 + 9.0 x_4 * x_13 - 7.5 x_4 * x_14 - 4.0 x_4 * x_15 + 1.0 x_4 * x_16 - 6.0 x_4 * x_18 + 17.0 x_4 * x_19 + 19.0 x_4 * x_32 - 19.0 x_4 * x_35 - 10.5 x_4 * x_37 + 4.0 x_4 * x_39 + 7.5 x_4 * x_40 + 24.5 x_4 * x_43 + 24.5 x_4 * x_44 + 8.5 x_4 * x_45 + 17.5 x_4 * x_47 + 24.5 x_4 * x_48 + 13.0 x_4 * x_49 - 22.0 x_5 * x_2 - 9.0 x_5 * x_5 + 24.5 x_5 * x_9 + 13.0 x_5 * x_12 + 23.0 x_5 * x_16 + 0.5 x_5 * x_21 - 1.0 x_5 * x_24 + 14.5 x_5 * x_26 - 6.0 x_5 * x_32 + 21.5 x_5 * x_39 - 5.5 x_5 * x_42 + 2.0 x_5 * x_43 - 22.0 x_5 * x_49 + 8.5 x_5 * x_50 + 21.5 x_6 * x_1 - 14.5 x_6 * x_3 - 22.5 x_6 * x_6 + 3.0 x_6 * x_7 + 23.5 x_6 * x_10 - 6.0 x_6 * x_11 + 23.0 x_6 * x_18 + 9.0 x_6 * x_22 - 5.5 x_6 * x_23 - 2.0 x_6 * x_25 - 7.5 x_6 * x_29 + 5.0 x_6 * x_33 + 23.5 x_6 * x_37 + 10.5 x_6 * x_38 + 20.5 x_6 * x_40 - 8.0 x_6 * x_41 + 0.5 x_6 * x_45 - 13.0 x_6 * x_50 + 20.5 x_7 * x_3 + 3.0 x_7 * x_6 + 2.5 x_7 * x_10 - 2.5 x_7 * x_11 - 19.0 x_7 * x_20 - 11.0 x_7 * x_21 + 17.5 x_7 * x_22 + 22.5 x_7 * x_25 + 0.5 x_7 * x_26 + 18.5 x_7 * x_28 - 7.0 x_7 * x_29 + 8.5 x_7 * x_31 + 9.0 x_7 * x_35 - 10.0 x_7 * x_36 + 1.0 x_7 * x_38 + 23.5 x_7 * x_43 - 13.5 x_7 * x_45 + 0.5 x_7 * x_49 - 12.0 x_7 * x_50 + 20.5 x_8 * x_2 - 16.5 x_8 * x_3 - 21.5 x_8 * x_4 - 24.0 x_8 * x_8 - 5.5 x_8 * x_9 + 24.0 x_8 * x_12 + 17.0 x_8 * x_14 + 17.5 x_8 * x_16 - 21.5 x_8 * x_20 - 20.5 x_8 * x_22 + 6.5 x_8 * x_23 - 6.5 x_8 * x_26 + 3.0 x_8 * x_28 + 6.5 x_8 * x_35 - 10.5 x_8 * x_36 - 14.0 x_8 * x_38 - 9.0 x_8 * x_39 - 4.5 x_8 * x_46 + 21.0 x_9 * x_3 + 4.0 x_9 * x_4 + 24.5 x_9 * x_5 - 5.5 x_9 * x_8 + 10.5 x_9 * x_15 - 11.5 x_9 * x_17 + 4.5 x_9 * x_18 - 19.5 x_9 * x_21 + 18.5 x_9 * x_22 + 4.0 x_9 * x_25 + 1.5 x_9 * x_26 + 2.0 x_9 * x_29 + 6.0 x_9 * x_34 - 17.0 x_9 * x_39 + 15.5 x_9 * x_40 + 18.5 x_9 * x_41 + 20.0 x_9 * x_43 - 6.5 x_10 * x_2 + 15.5 x_10 * x_4 + 23.5 x_10 * x_6 + 2.5 x_10 * x_7 + 9.0 x_10 * x_10 + 22.0 x_10 * x_12 + 13.5 x_10 * x_13 - 5.5 x_10 * x_16 - 13.5 x_10 * x_18 - 8.5 x_10 * x_23 + 17.5 x_10 * x_28 + 17.5 x_10 * x_31 - 4.0 x_10 * x_34 + 0.5 x_10 * x_35 + 24.5 x_10 * x_41 - 8.5 x_10 * x_44 - 0.5 x_10 * x_48 + 7.0 x_10 * x_49 - 4.5 x_10 * x_50 + 17.0 x_11 * x_1 - 6.0 x_11 * x_6 - 2.5 x_11 * x_7 + 8.5 x_11 * x_14 - 19.5 x_11 * x_16 + 10.0 x_11 * x_17 - 1.5 x_11 * x_19 + 24.5 x_11 * x_21 + 21.5 x_11 * x_24 - 18.5 x_11 * x_26 - 24.0 x_11 * x_27 + 8.0 x_11 * x_33 - 21.0 x_11 * x_35 - 6.5 x_11 * x_42 + 18.5 x_11 * x_44 - 12.0 x_11 * x_45 - 11.5 x_11 * x_46 - 1.0 x_11 * x_48 + 13.0 x_12 * x_5 + 24.0 x_12 * x_8 + 22.0 x_12 * x_10 - 8.0 x_12 * x_18 + 3.0 x_12 * x_24 + 7.0 x_12 * x_26 - 14.5 x_12 * x_29 + 13.5 x_12 * x_31 - 1.0 x_12 * x_33 - 23.0 x_12 * x_37 + 6.0 x_12 * x_41 - 20.0 x_12 * x_43 - 6.0 x_12 * x_45 + 8.0 x_12 * x_46 + 4.0 x_12 * x_47 + 5.0 x_12 * x_48 + 9.0 x_13 * x_4 + 13.5 x_13 * x_10 + 17.0 x_13 * x_13 - 9.5 x_13 * x_20 - 8.0 x_13 * x_21 - 14.5 x_13 * x_23 - 7.0 x_13 * x_24 - 6.5 x_13 * x_25 + 1.0 x_13 * x_26 - 5.5 x_13 * x_27 + 5.0 x_13 * x_28 + 8.5 x_13 * x_29 + 8.5 x_13 * x_30 + 4.0 x_13 * x_32 + 8.0 x_13 * x_33 - 4.0 x_13 * x_38 - 15.5 x_13 * x_40 - 19.5 x_13 * x_41 - 2.0 x_13 * x_43 - 22.5 x_13 * x_44 - 1.5 x_14 * x_1 - 7.5 x_14 * x_4 + 17.0 x_14 * x_8 + 8.5 x_14 * x_11 + 17.0 x_14 * x_14 - 10.5 x_14 * x_15 - 3.0 x_14 * x_18 + 12.5 x_14 * x_21 + 24.0 x_14 * x_23 + 4.0 x_14 * x_24 + 4.0 x_14 * x_29 + 21.5 x_14 * x_31 - 4.0 x_14 * x_33 - 13.0 x_14 * x_36 - 17.0 x_14 * x_37 + 8.5 x_14 * x_38 + 11.5 x_14 * x_46 + 20.0 x_14 * x_50 + 13.0 x_15 * x_2 + 22.5 x_15 * x_3 - 4.0 x_15 * x_4 + 10.5 x_15 * x_9 - 10.5 x_15 * x_14 + 21.0 x_15 * x_19 + 8.5 x_15 * x_25 - 12.0 x_15 * x_29 + 15.5 x_15 * x_31 - 12.0 x_15 * x_32 - 12.5 x_15 * x_34 + 18.0 x_15 * x_36 + 23.5 x_15 * x_37 + 13.0 x_15 * x_38 - 7.0 x_15 * x_46 + 24.0 x_16 * x_1 - 1.5 x_16 * x_2 + 1.0 x_16 * x_4 + 23.0 x_16 * x_5 + 17.5 x_16 * x_8 - 5.5 x_16 * x_10 - 19.5 x_16 * x_11 - 13.0 x_16 * x_17 - 3.0 x_16 * x_18 + 8.0 x_16 * x_20 + 9.5 x_16 * x_21 + 22.0 x_16 * x_23 + 13.0 x_16 * x_25 - 7.5 x_16 * x_27 + 5.0 x_16 * x_28 + 14.5 x_16 * x_34 + 18.0 x_16 * x_35 + 16.0 x_16 * x_36 + 19.5 x_16 * x_37 + 10.0 x_16 * x_40 + 13.0 x_16 * x_43 + 1.5 x_16 * x_48 - 4.5 x_16 * x_50 - 21.5 x_17 * x_1 - 14.5 x_17 * x_2 + 17.0 x_17 * x_3 - 11.5 x_17 * x_9 + 10.0 x_17 * x_11 - 13.0 x_17 * x_16 + 11.0 x_17 * x_19 - 18.0 x_17 * x_20 + 20.5 x_17 * x_22 - 8.0 x_17 * x_26 + 5.0 x_17 * x_29 + 12.0 x_17 * x_31 + 17.5 x_17 * x_36 - 17.5 x_17 * x_37 + 8.0 x_17 * x_38 + 19.5 x_17 * x_40 + 17.5 x_17 * x_43 + 14.5 x_17 * x_48 + 10.5 x_17 * x_49 - 22.0 x_17 * x_50 - 6.0 x_18 * x_4 + 23.0 x_18 * x_6 + 4.5 x_18 * x_9 - 13.5 x_18 * x_10 - 8.0 x_18 * x_12 - 3.0 x_18 * x_14 - 3.0 x_18 * x_16 - 16.0 x_18 * x_21 + 19.5 x_18 * x_22 - 8.0 x_18 * x_25 - 2.0 x_18 * x_27 - 14.0 x_18 * x_30 + 23.5 x_18 * x_34 + 22.0 x_18 * x_35 + 15.0 x_18 * x_36 - 5.5 x_18 * x_42 + 6.5 x_18 * x_43 - 17.0 x_18 * x_44 - 6.5 x_18 * x_45 - 19.5 x_18 * x_46 - 24.0 x_18 * x_49 + 11.5 x_18 * x_50 + 4.0 x_19 * x_2 + 17.0 x_19 * x_4 - 1.5 x_19 * x_11 + 21.0 x_19 * x_15 + 11.0 x_19 * x_17 - 6.5 x_19 * x_19 - 21.5 x_19 * x_24 + 3.0 x_19 * x_25 + 10.5 x_19 * x_27 - 12.5 x_19 * x_29 + 21.5 x_19 * x_30 + 16.5 x_19 * x_34 - 19.0 x_19 * x_41 + 10.5 x_19 * x_44 - 10.0 x_19 * x_45 + 7.5 x_19 * x_46 + 16.5 x_19 * x_48 - 15.5 x_19 * x_50 + 17.5 x_20 * x_3 - 19.0 x_20 * x_7 - 21.5 x_20 * x_8 - 9.5 x_20 * x_13 + 8.0 x_20 * x_16 - 18.0 x_20 * x_17 - 22.5 x_20 * x_20 + 7.0 x_20 * x_21 - 7.0 x_20 * x_23 - 5.0 x_20 * x_25 - 18.5 x_20 * x_28 - 18.0 x_20 * x_32 - 15.5 x_20 * x_33 + 14.5 x_20 * x_35 + 5.0 x_20 * x_36 + 10.0 x_20 * x_38 - 22.0 x_20 * x_40 + 18.0 x_20 * x_49 - 7.5 x_20 * x_50 - 12.0 x_21 * x_2 + 0.5 x_21 * x_5 - 11.0 x_21 * x_7 - 19.5 x_21 * x_9 + 24.5 x_21 * x_11 - 8.0 x_21 * x_13 + 12.5 x_21 * x_14 + 9.5 x_21 * x_16 - 16.0 x_21 * x_18 + 7.0 x_21 * x_20 + 1.5 x_21 * x_27 - 13.5 x_21 * x_29 + 17.5 x_21 * x_31 - 22.0 x_21 * x_33 + 23.5 x_21 * x_39 - 13.0 x_21 * x_42 - 20.5 x_21 * x_44 - 3.5 x_21 * x_47 - 9.0 x_21 * x_49 - 15.0 x_21 * x_50 - 1.0 x_22 * x_2 + 9.0 x_22 * x_6 + 17.5 x_22 * x_7 - 20.5 x_22 * x_8 + 18.5 x_22 * x_9 + 20.5 x_22 * x_17 + 19.5 x_22 * x_18 + 22.5 x_22 * x_22 + 0.5 x_22 * x_23 + 4.0 x_22 * x_24 + 23.5 x_22 * x_25 - 13.5 x_22 * x_26 - 14.0 x_22 * x_27 - 3.0 x_22 * x_31 + 10.5 x_22 * x_33 + 24.5 x_22 * x_34 + 16.5 x_22 * x_36 - 12.0 x_22 * x_40 + 17.0 x_22 * x_41 + 16.0 x_22 * x_45 - 22.0 x_22 * x_47 + 15.0 x_22 * x_48 - 21.0 x_22 * x_49 - 8.0 x_23 * x_1 + 14.5 x_23 * x_3 - 5.5 x_23 * x_6 + 6.5 x_23 * x_8 - 8.5 x_23 * x_10 - 14.5 x_23 * x_13 + 24.0 x_23 * x_14 + 22.0 x_23 * x_16 - 7.0 x_23 * x_20 + 0.5 x_23 * x_22 + 22.5 x_23 * x_23 + 24.5 x_23 * x_24 + 6.5 x_23 * x_25 - 24.5 x_23 * x_29 + 6.0 x_23 * x_34 + 5.0 x_23 * x_45 - 11.5 x_23 * x_47 + 18.5 x_23 * x_50 + 14.5 x_24 * x_3 - 1.0 x_24 * x_5 + 21.5 x_24 * x_11 + 3.0 x_24 * x_12 - 7.0 x_24 * x_13 + 4.0 x_24 * x_14 - 21.5 x_24 * x_19 + 4.0 x_24 * x_22 + 24.5 x_24 * x_23 + 8.0 x_24 * x_28 + 19.5 x_24 * x_30 + 21.5 x_24 * x_33 - 20.5 x_24 * x_34 - 9.0 x_24 * x_37 - 13.0 x_24 * x_40 - 7.5 x_24 * x_41 + 20.0 x_24 * x_43 - 22.0 x_24 * x_46 - 20.5 x_25 * x_1 - 2.0 x_25 * x_6 + 22.5 x_25 * x_7 + 4.0 x_25 * x_9 - 6.5 x_25 * x_13 + 8.5 x_25 * x_15 + 13.0 x_25 * x_16 - 8.0 x_25 * x_18 + 3.0 x_25 * x_19 - 5.0 x_25 * x_20 + 23.5 x_25 * x_22 + 6.5 x_25 * x_23 + 5.5 x_25 * x_27 - 3.0 x_25 * x_28 - 22.0 x_25 * x_29 + 3.5 x_25 * x_31 + 17.5 x_25 * x_33 - 4.0 x_25 * x_36 + 12.5 x_25 * x_37 + 11.5 x_25 * x_41 + 3.0 x_25 * x_43 - 13.0 x_25 * x_44 - 6.5 x_25 * x_46 + 6.5 x_25 * x_49 + 20.0 x_26 * x_3 + 14.5 x_26 * x_5 + 0.5 x_26 * x_7 - 6.5 x_26 * x_8 + 1.5 x_26 * x_9 - 18.5 x_26 * x_11 + 7.0 x_26 * x_12 + 1.0 x_26 * x_13 - 8.0 x_26 * x_17 - 13.5 x_26 * x_22 + 2.0 x_26 * x_26 - 18.5 x_26 * x_28 + 8.5 x_26 * x_34 - 23.0 x_26 * x_40 - 23.5 x_26 * x_44 + 18.0 x_26 * x_46 + 19.0 x_26 * x_47 - 9.5 x_26 * x_49 + 8.5 x_26 * x_50 + 17.5 x_27 * x_1 - 7.5 x_27 * x_2 - 24.0 x_27 * x_11 - 5.5 x_27 * x_13 - 7.5 x_27 * x_16 - 2.0 x_27 * x_18 + 10.5 x_27 * x_19 + 1.5 x_27 * x_21 - 14.0 x_27 * x_22 + 5.5 x_27 * x_25 + 18.0 x_27 * x_27 + 15.0 x_27 * x_29 - 3.0 x_27 * x_31 + 4.5 x_27 * x_32 + 15.0 x_27 * x_35 - 20.5 x_27 * x_39 + 21.0 x_27 * x_40 + 3.5 x_27 * x_42 + 24.5 x_27 * x_44 - 24.5 x_27 * x_46 - 0.5 x_27 * x_47 + 14.0 x_27 * x_50 - 21.0 x_28 * x_2 + 4.5 x_28 * x_3 + 18.5 x_28 * x_7 + 3.0 x_28 * x_8 + 17.5 x_28 * x_10 + 5.0 x_28 * x_13 + 5.0 x_28 * x_16 - 18.5 x_28 * x_20 + 8.0 x_28 * x_24 - 3.0 x_28 * x_25 - 18.5 x_28 * x_26 - 13.5 x_28 * x_28 + 19.5 x_28 * x_30 - 5.5 x_28 * x_35 + 15.0 x_28 * x_36 - 19.0 x_28 * x_37 - 23.0 x_28 * x_41 + 3.0 x_28 * x_44 - 11.0 x_28 * x_49 + 1.0 x_28 * x_50 + 10.0 x_29 * x_1 - 7.5 x_29 * x_6 - 7.0 x_29 * x_7 + 2.0 x_29 * x_9 - 14.5 x_29 * x_12 + 8.5 x_29 * x_13 + 4.0 x_29 * x_14 - 12.0 x_29 * x_15 + 5.0 x_29 * x_17 - 12.5 x_29 * x_19 - 13.5 x_29 * x_21 - 24.5 x_29 * x_23 - 22.0 x_29 * x_25 + 15.0 x_29 * x_27 - 19.5 x_29 * x_32 + 13.5 x_29 * x_35 - 7.5 x_29 * x_37 + 23.0 x_29 * x_38 + 13.0 x_29 * x_41 + 10.5 x_29 * x_42 - 3.0 x_29 * x_44 + 8.0 x_29 * x_49 + 8.5 x_30 * x_13 - 14.0 x_30 * x_18 + 21.5 x_30 * x_19 + 19.5 x_30 * x_24 + 19.5 x_30 * x_28 + 19.5 x_30 * x_32 - 14.0 x_30 * x_36 - 9.0 x_30 * x_39 + 5.0 x_30 * x_42 + 3.0 x_30 * x_44 + 16.0 x_30 * x_46 + 13.0 x_30 * x_50 + 6.5 x_31 * x_3 + 8.5 x_31 * x_7 + 17.5 x_31 * x_10 + 13.5 x_31 * x_12 + 21.5 x_31 * x_14 + 15.5 x_31 * x_15 + 12.0 x_31 * x_17 + 17.5 x_31 * x_21 - 3.0 x_31 * x_22 + 3.5 x_31 * x_25 - 3.0 x_31 * x_27 - 7.5 x_31 * x_32 - 12.0 x_31 * x_38 + 21.5 x_31 * x_39 + 4.0 x_31 * x_45 + 8.0 x_31 * x_46 - 5.0 x_31 * x_47 - 18.5 x_31 * x_49 + 6.0 x_31 * x_50 + 16.0 x_32 * x_2 + 19.0 x_32 * x_4 - 6.0 x_32 * x_5 + 4.0 x_32 * x_13 - 12.0 x_32 * x_15 - 18.0 x_32 * x_20 + 4.5 x_32 * x_27 - 19.5 x_32 * x_29 + 19.5 x_32 * x_30 - 7.5 x_32 * x_31 + 8.0 x_32 * x_34 + 11.5 x_32 * x_37 + 7.5 x_32 * x_39 + 5.5 x_32 * x_40 - 11.0 x_32 * x_42 - 11.0 x_32 * x_43 + 8.5 x_32 * x_47 - 12.5 x_32 * x_48 + 14.0 x_32 * x_49 + 5.0 x_33 * x_6 + 8.0 x_33 * x_11 - 1.0 x_33 * x_12 + 8.0 x_33 * x_13 - 4.0 x_33 * x_14 - 15.5 x_33 * x_20 - 22.0 x_33 * x_21 + 10.5 x_33 * x_22 + 21.5 x_33 * x_24 + 17.5 x_33 * x_25 - 11.5 x_33 * x_33 - 11.5 x_33 * x_34 + 4.5 x_33 * x_38 + 13.0 x_33 * x_39 + 17.0 x_33 * x_40 - 14.5 x_33 * x_47 - 7.0 x_33 * x_48 + 7.5 x_34 * x_1 - 24.0 x_34 * x_2 + 6.0 x_34 * x_9 - 4.0 x_34 * x_10 - 12.5 x_34 * x_15 + 14.5 x_34 * x_16 + 23.5 x_34 * x_18 + 16.5 x_34 * x_19 + 24.5 x_34 * x_22 + 6.0 x_34 * x_23 - 20.5 x_34 * x_24 + 8.5 x_34 * x_26 + 8.0 x_34 * x_32 - 11.5 x_34 * x_33 - 17.5 x_34 * x_34 + 8.0 x_34 * x_35 - 9.0 x_34 * x_36 + 23.0 x_34 * x_38 - 22.5 x_34 * x_39 + 15.0 x_34 * x_42 - 20.5 x_34 * x_45 + 16.0 x_34 * x_46 - 7.5 x_34 * x_47 - 6.5 x_34 * x_50 + 13.0 x_35 * x_1 + 12.0 x_35 * x_2 + 20.0 x_35 * x_3 - 19.0 x_35 * x_4 + 9.0 x_35 * x_7 + 6.5 x_35 * x_8 + 0.5 x_35 * x_10 - 21.0 x_35 * x_11 + 18.0 x_35 * x_16 + 22.0 x_35 * x_18 + 14.5 x_35 * x_20 + 15.0 x_35 * x_27 - 5.5 x_35 * x_28 + 13.5 x_35 * x_29 + 8.0 x_35 * x_34 - 5.0 x_35 * x_35 + 22.0 x_35 * x_44 - 18.5 x_35 * x_48 + 23.5 x_36 * x_1 + 22.5 x_36 * x_2 - 10.0 x_36 * x_7 - 10.5 x_36 * x_8 - 13.0 x_36 * x_14 + 18.0 x_36 * x_15 + 16.0 x_36 * x_16 + 17.5 x_36 * x_17 + 15.0 x_36 * x_18 + 5.0 x_36 * x_20 + 16.5 x_36 * x_22 - 4.0 x_36 * x_25 + 15.0 x_36 * x_28 - 14.0 x_36 * x_30 - 9.0 x_36 * x_34 + 18.0 x_36 * x_36 - 4.5 x_36 * x_43 - 3.0 x_36 * x_44 + 24.0 x_36 * x_48 - 19.0 x_36 * x_49 - 20.0 x_37 * x_2 - 10.5 x_37 * x_4 + 23.5 x_37 * x_6 - 23.0 x_37 * x_12 - 17.0 x_37 * x_14 + 23.5 x_37 * x_15 + 19.5 x_37 * x_16 - 17.5 x_37 * x_17 - 9.0 x_37 * x_24 + 12.5 x_37 * x_25 - 19.0 x_37 * x_28 - 7.5 x_37 * x_29 + 11.5 x_37 * x_32 + 1.0 x_37 * x_39 + 3.0 x_37 * x_40 - 5.0 x_37 * x_41 - 5.0 x_37 * x_43 - 21.0 x_37 * x_44 + 15.5 x_37 * x_48 + 10.5 x_38 * x_6 + 1.0 x_38 * x_7 - 14.0 x_38 * x_8 - 4.0 x_38 * x_13 + 8.5 x_38 * x_14 + 13.0 x_38 * x_15 + 8.0 x_38 * x_17 + 10.0 x_38 * x_20 + 23.0 x_38 * x_29 - 12.0 x_38 * x_31 + 4.5 x_38 * x_33 + 23.0 x_38 * x_34 + 11.0 x_38 * x_41 - 20.5 x_38 * x_42 - 4.5 x_38 * x_43 - 19.5 x_38 * x_45 + 15.0 x_38 * x_46 - 13.5 x_38 * x_47 - 16.0 x_38 * x_48 - 14.0 x_38 * x_49 - 17.0 x_38 * x_50 + 7.5 x_39 * x_1 + 21.0 x_39 * x_2 + 4.0 x_39 * x_4 + 21.5 x_39 * x_5 - 9.0 x_39 * x_8 - 17.0 x_39 * x_9 + 23.5 x_39 * x_21 - 20.5 x_39 * x_27 - 9.0 x_39 * x_30 + 21.5 x_39 * x_31 + 7.5 x_39 * x_32 + 13.0 x_39 * x_33 - 22.5 x_39 * x_34 + 1.0 x_39 * x_37 + 19.0 x_39 * x_39 + 3.5 x_39 * x_41 + 14.0 x_39 * x_43 - 9.5 x_39 * x_49 + 19.0 x_39 * x_50 - 22.5 x_40 * x_2 + 7.5 x_40 * x_4 + 20.5 x_40 * x_6 + 15.5 x_40 * x_9 - 15.5 x_40 * x_13 + 10.0 x_40 * x_16 + 19.5 x_40 * x_17 - 22.0 x_40 * x_20 - 12.0 x_40 * x_22 - 13.0 x_40 * x_24 - 23.0 x_40 * x_26 + 21.0 x_40 * x_27 + 5.5 x_40 * x_32 + 17.0 x_40 * x_33 + 3.0 x_40 * x_37 + 20.0 x_40 * x_40 + 13.5 x_40 * x_42 + 17.5 x_40 * x_43 - 3.5 x_40 * x_44 + 22.5 x_40 * x_50 + 19.5 x_41 * x_2 - 8.0 x_41 * x_6 + 18.5 x_41 * x_9 + 24.5 x_41 * x_10 + 6.0 x_41 * x_12 - 19.5 x_41 * x_13 - 19.0 x_41 * x_19 + 17.0 x_41 * x_22 - 7.5 x_41 * x_24 + 11.5 x_41 * x_25 - 23.0 x_41 * x_28 + 13.0 x_41 * x_29 - 5.0 x_41 * x_37 + 11.0 x_41 * x_38 + 3.5 x_41 * x_39 + 1.0 x_41 * x_42 - 14.0 x_41 * x_43 + 6.0 x_41 * x_46 + 11.5 x_41 * x_48 - 10.0 x_42 * x_2 - 5.5 x_42 * x_5 - 6.5 x_42 * x_11 - 5.5 x_42 * x_18 - 13.0 x_42 * x_21 + 3.5 x_42 * x_27 + 10.5 x_42 * x_29 + 5.0 x_42 * x_30 - 11.0 x_42 * x_32 + 15.0 x_42 * x_34 - 20.5 x_42 * x_38 + 13.5 x_42 * x_40 + 1.0 x_42 * x_41 - 14.5 x_42 * x_44 - 19.5 x_42 * x_48 - 6.0 x_42 * x_50 + 24.5 x_43 * x_4 + 2.0 x_43 * x_5 + 23.5 x_43 * x_7 + 20.0 x_43 * x_9 - 20.0 x_43 * x_12 - 2.0 x_43 * x_13 + 13.0 x_43 * x_16 + 17.5 x_43 * x_17 + 6.5 x_43 * x_18 + 20.0 x_43 * x_24 + 3.0 x_43 * x_25 - 11.0 x_43 * x_32 - 4.5 x_43 * x_36 - 5.0 x_43 * x_37 - 4.5 x_43 * x_38 + 14.0 x_43 * x_39 + 17.5 x_43 * x_40 - 14.0 x_43 * x_41 - 4.5 x_43 * x_49 + 8.5 x_44 * x_1 + 23.0 x_44 * x_3 + 24.5 x_44 * x_4 - 8.5 x_44 * x_10 + 18.5 x_44 * x_11 - 22.5 x_44 * x_13 - 17.0 x_44 * x_18 + 10.5 x_44 * x_19 - 20.5 x_44 * x_21 - 13.0 x_44 * x_25 - 23.5 x_44 * x_26 + 24.5 x_44 * x_27 + 3.0 x_44 * x_28 - 3.0 x_44 * x_29 + 3.0 x_44 * x_30 + 22.0 x_44 * x_35 - 3.0 x_44 * x_36 - 21.0 x_44 * x_37 - 3.5 x_44 * x_40 - 14.5 x_44 * x_42 + 17.0 x_44 * x_44 + 10.0 x_44 * x_46 + 16.0 x_44 * x_49 + 18.5 x_45 * x_2 + 8.5 x_45 * x_4 + 0.5 x_45 * x_6 - 13.5 x_45 * x_7 - 12.0 x_45 * x_11 - 6.0 x_45 * x_12 - 6.5 x_45 * x_18 - 10.0 x_45 * x_19 + 16.0 x_45 * x_22 + 5.0 x_45 * x_23 + 4.0 x_45 * x_31 - 20.5 x_45 * x_34 - 19.5 x_45 * x_38 - 20.5 x_45 * x_45 + 17.0 x_45 * x_48 - 5.5 x_46 * x_1 - 4.5 x_46 * x_8 - 11.5 x_46 * x_11 + 8.0 x_46 * x_12 + 11.5 x_46 * x_14 - 7.0 x_46 * x_15 - 19.5 x_46 * x_18 + 7.5 x_46 * x_19 - 22.0 x_46 * x_24 - 6.5 x_46 * x_25 + 18.0 x_46 * x_26 - 24.5 x_46 * x_27 + 16.0 x_46 * x_30 + 8.0 x_46 * x_31 + 16.0 x_46 * x_34 + 15.0 x_46 * x_38 + 6.0 x_46 * x_41 + 10.0 x_46 * x_44 - 17.5 x_46 * x_47 - 18.0 x_47 * x_1 + 17.0 x_47 * x_3 + 17.5 x_47 * x_4 + 4.0 x_47 * x_12 - 3.5 x_47 * x_21 - 22.0 x_47 * x_22 - 11.5 x_47 * x_23 + 19.0 x_47 * x_26 - 0.5 x_47 * x_27 - 5.0 x_47 * x_31 + 8.5 x_47 * x_32 - 14.5 x_47 * x_33 - 7.5 x_47 * x_34 - 13.5 x_47 * x_38 - 17.5 x_47 * x_46 + 9.0 x_47 * x_48 + 4.0 x_48 * x_2 - 22.5 x_48 * x_3 + 24.5 x_48 * x_4 - 0.5 x_48 * x_10 - 1.0 x_48 * x_11 + 5.0 x_48 * x_12 + 1.5 x_48 * x_16 + 14.5 x_48 * x_17 + 16.5 x_48 * x_19 + 15.0 x_48 * x_22 - 12.5 x_48 * x_32 - 7.0 x_48 * x_33 - 18.5 x_48 * x_35 + 24.0 x_48 * x_36 + 15.5 x_48 * x_37 - 16.0 x_48 * x_38 + 11.5 x_48 * x_41 - 19.5 x_48 * x_42 + 17.0 x_48 * x_45 + 9.0 x_48 * x_47 - 1.5 x_48 * x_48 + 23.5 x_48 * x_50 + 0.5 x_49 * x_2 - 5.0 x_49 * x_3 + 13.0 x_49 * x_4 - 22.0 x_49 * x_5 + 0.5 x_49 * x_7 + 7.0 x_49 * x_10 + 10.5 x_49 * x_17 - 24.0 x_49 * x_18 + 18.0 x_49 * x_20 - 9.0 x_49 * x_21 - 21.0 x_49 * x_22 + 6.5 x_49 * x_25 - 9.5 x_49 * x_26 - 11.0 x_49 * x_28 + 8.0 x_49 * x_29 - 18.5 x_49 * x_31 + 14.0 x_49 * x_32 - 19.0 x_49 * x_36 - 14.0 x_49 * x_38 - 9.5 x_49 * x_39 - 4.5 x_49 * x_43 + 16.0 x_49 * x_44 + 2.5 x_49 * x_49 - 7.0 x_50 * x_2 + 8.5 x_50 * x_5 - 13.0 x_50 * x_6 - 12.0 x_50 * x_7 - 4.5 x_50 * x_10 + 20.0 x_50 * x_14 - 4.5 x_50 * x_16 - 22.0 x_50 * x_17 + 11.5 x_50 * x_18 - 15.5 x_50 * x_19 - 7.5 x_50 * x_20 - 15.0 x_50 * x_21 + 18.5 x_50 * x_23 + 8.5 x_50 * x_26 + 14.0 x_50 * x_27 + 1.0 x_50 * x_28 + 13.0 x_50 * x_30 + 6.0 x_50 * x_31 - 6.5 x_50 * x_34 - 17.0 x_50 * x_38 + 19.0 x_50 * x_39 + 22.5 x_50 * x_40 - 6.0 x_50 * x_42 + 23.5 x_50 * x_48 ] + 0.0 x_1 + 15.0 x_2 + 0.0 x_3 - 19.0 x_4 + 0.0 x_5 + 17.0 x_6 - 25.0 x_7 + 0.0 x_8 + 0.0 x_9 + 0.0 x_10 + 0.0 x_11 + 0.0 x_12 + 0.0 x_13 + 11.0 x_14 - 31.0 x_15 + 0.0 x_16 + 0.0 x_17 + 0.0 x_18 + 0.0 x_19 + 0.0 x_20 + 0.0 x_21 + 0.0 x_22 + 0.0 x_23 + 0.0 x_24 + 11.0 x_25 + 0.0 x_26 + 0.0 x_27 + 0.0 x_28 + 0.0 x_29 + 6.0 x_30 + 0.0 x_31 + 0.0 x_32 + 0.0 x_33 + 0.0 x_34 + 0.0 x_35 - 3.0 x_36 - 22.0 x_37 + 0.0 x_38 + 29.0 x_39 + 0.0 x_40 + 0.0 x_41 - 9.0 x_42 + 0.0 x_43 + 6.0 x_44 + 0.0 x_45 + 0.0 x_46 - 14.0 x_47 - 25.0 x_48 - 43.0 x_49 + 36.0 x_50

Subject To

Bounds
 x_1 <= 1.0
 x_2 <= 1.0
 x_3 <= 1.0
 x_4 <= 1.0
 x_5 <= 1.0
 x_6 <= 1.0
 x_7 <= 1.0
 x_8 <= 1.0
 x_9 <= 1.0
 x_10 <= 1.0
 x_11 <= 1.0
 x_12 <= 1.0
 x_13 <= 1.0
 x_14 <= 1.0
 x_15 <= 1.0
 x_16 <= 1.0
 x_17 <= 1.0
 x_18 <= 1.0
 x_19 <= 1.0
 x_20 <= 1.0
 x_21 <= 1.0
 x_22 <= 1.0
 x_23 <= 1.0
 x_24 <= 1.0
 x_25 <= 1.0
 x_26 <= 1.0
 x_27 <= 1.0
 x_28 <= 1.0
 x_29 <= 1.0
 x_30 <= 1.0
 x_31 <= 1.0
 x_32 <= 1.0
 x_33 <= 1.0
 x_34 <= 1.0
 x_35 <= 1.0
 x_36 <= 1.0
 x_37 <= 1.0
 x_38 <= 1.0
 x_39 <= 1.0
 x_40 <= 1.0
 x_41 <= 1.0
 x_42 <= 1.0
 x_43 <= 1.0
 x_44 <= 1.0
 x_45 <= 1.0
 x_46 <= 1.0
 x_47 <= 1.0
 x_48 <= 1.0
 x_49 <= 1.0
 x_50 <= 1.0

End